&CONTROL
! .control.settings.
calculation               = 'scf',
restart_mode              = 'from_scratch',
prefix                    = 'pwscf',
pseudo_dir                = '/central/groups/SeeGroup/qe_pseudopotentials/',

! .control.io.
outdir                    = '.',
verbosity                 = 'low',

! .control.ion_relax.
tprnfor                   = .true.,
tstress                   = .true.,
forc_conv_thr             = 0.001,
etot_conv_thr             = 0.0001,
nstep                     = 100,
/

&SYSTEM
! .system.structure.
ibrav                     = 0,
a                         = 1.0,
nat                       = 79,
ntyp                      = 3,

! .system.ecut.
ecutwfc                   = 120,
ecutrho                   = 600,

! .system.occupations.
occupations               = 'smearing',
smearing                  = 'fd',
degauss                   = 0.007,
/

&ELECTRONS
! .electrons.
diagonalization           = 'david',
conv_thr                  = 1e-08,
electron_maxstep          = 100,
mixing_mode               = 'plain',
mixing_beta               = 0.4,
/

&IONS
! .ions.
ion_dynamics              = 'bfgs',
wfc_extrapolation         = 'none',
pot_extrapolation         = 'none',
/

&CEll
! .cell.
cell_dynamics             = 'bfgs',
press                     = '0.0',
press_conv_thr            = '0.5',
/

ATOMIC_SPECIES
   Li   6.9410 Li.pbe-s-kjpaw_psl.1.0.0.UPF
   Er 167.2590 Er.pbe-spdn-kjpaw_psl.1.0.0.UPF
   Br  79.9040 Br.pbe-dn-kjpaw_psl.1.0.0.UPF

ATOMIC_POSITIONS  crystal 
 Li     0.25000000000000     0.82469404000000     0.00000000000000   1   1   1
 Li     0.25000000000000     0.82469404000000     0.50000000000000   1   1   1
 Li     0.75000000000000     0.82469404000000     1.00000000000000   1   1   1
 Li     0.75000000000000     0.82469404000000     0.50000000000000   1   1   1
 Li     0.25000000000000     0.17061443000000     0.00000000000000   1   1   1
 Li     0.75000000000000     0.17061443000000     0.00000000000000   1   1   1
 Li     0.75000000000000     0.17061443000000     0.50000000000000   1   1   1
 Li     0.25000000000000     0.65211043000000     0.25000000000000   1   1   1
 Li     0.25000000000000     0.65211043000000     0.75000000000000   1   1   1
 Li     0.75000000000000     0.65211043000000     0.25000000000000   1   1   1
 Li     0.75000000000000     0.65211043000000     0.75000000000000   1   1   1
 Li     0.00000000000000     0.32469424000000     1.00000000000000   1   1   1
 Li     0.00000000000000     0.32469424000000     0.50000000000000   1   1   1
 Li     0.50000000000000     0.32469424000000     0.00000000000000   1   1   1
 Li     0.50000000000000     0.32469424000000     0.50000000000000   1   1   1
 Li     0.00000000000000     0.67061986000000     0.00000000000000   1   1   1
 Li     0.00000000000000     0.67061986000000     0.50000000000000   1   1   1
 Li     0.50000000000000     0.67061986000000     0.00000000000000   1   1   1
 Li     0.50000000000000     0.67061986000000     0.50000000000000   1   1   1
 Li     0.00000000000000     0.15211417000000     0.25000000000000   1   1   1
 Li     1.00000000000000     0.15211417000000     0.75000000000000   1   1   1
 Li     0.50000000000000     0.15211417000000     0.25000000000000   1   1   1
 Li     0.50000000000000     0.15211417000000     0.75000000000000   1   1   1
 Er     0.25000000000000     0.49852159000000     1.00000000000000   1   1   1
 Er     0.25000000000000     0.49852159000000     0.50000000000000   1   1   1
 Er     0.75000000000000     0.49852159000000     1.00000000000000   1   1   1
 Er     0.75000000000000     0.49852159000000     0.50000000000000   1   1   1
 Er     0.00000000000000     0.99851916000000     0.00000000000000   1   1   1
 Er     0.00000000000000     0.99851916000000     0.50000000000000   1   1   1
 Er     0.50000000000000     0.99851916000000     1.00000000000000   1   1   1
 Er     0.50000000000000     0.99851916000000     0.50000000000000   1   1   1
 Br     0.37634026000000     0.83055411000000     0.38667662000000   1   1   1
 Br     0.37634026000000     0.83055411000000     0.88667662000000   1   1   1
 Br     0.87634026000000     0.83055411000000     0.38667662000000   1   1   1
 Br     0.87634026000000     0.83055411000000     0.88667662000000   1   1   1
 Br     0.38514106000000     0.16543313000000     0.37519523000000   1   1   1
 Br     0.38514106000000     0.16543313000000     0.87519523000000   1   1   1
 Br     0.88514106000000     0.16543313000000     0.37519523000000   1   1   1
 Br     0.88514106000000     0.16543313000000     0.87519522000000   1   1   1
 Br     0.11485895000000     0.16543313000000     0.12480478000000   1   1   1
 Br     0.11485895000000     0.16543313000000     0.62480477000000   1   1   1
 Br     0.61485894000000     0.16543313000000     0.12480477000000   1   1   1
 Br     0.61485894000000     0.16543313000000     0.62480477000000   1   1   1
 Br     0.12365974000000     0.83055411000000     0.11332338000000   1   1   1
 Br     0.12365974000000     0.83055411000000     0.61332338000000   1   1   1
 Br     0.62365974000000     0.83055411000000     0.11332338000000   1   1   1
 Br     0.62365974000000     0.83055411000000     0.61332338000000   1   1   1
 Br     0.12709940000000     0.00853888000000     0.38267962000000   1   1   1
 Br     0.12709940000000     0.00853888000000     0.88267962000000   1   1   1
 Br     0.62709940000000     0.00853888000000     0.38267962000000   1   1   1
 Br     0.62709940000000     0.00853888000000     0.88267962000000   1   1   1
 Br     0.37290060000000     0.00853888000000     0.11732038000000   1   1   1
 Br     0.37290060000000     0.00853888000000     0.61732038000000   1   1   1
 Br     0.87290060000000     0.00853888000000     0.11732038000000   1   1   1
 Br     0.87290060000000     0.00853888000000     0.61732038000000   1   1   1
 Br     0.12634070000000     0.33055557000000     0.38667623000000   1   1   1
 Br     0.12634070000000     0.33055557000000     0.88667623000000   1   1   1
 Br     0.62634071000000     0.33055557000000     0.38667623000000   1   1   1
 Br     0.62634071000000     0.33055557000000     0.88667622000000   1   1   1
 Br     0.13514086000000     0.66543360000000     0.37519322000000   1   1   1
 Br     0.13514086000000     0.66543360000000     0.87519322000000   1   1   1
 Br     0.63514086000000     0.66543360000000     0.37519322000000   1   1   1
 Br     0.63514086000000     0.66543360000000     0.87519321000000   1   1   1
 Br     0.36485914000000     0.66543360000000     0.12480678000000   1   1   1
 Br     0.36485914000000     0.66543360000000     0.62480678000000   1   1   1
 Br     0.86485914000000     0.66543360000000     0.12480678000000   1   1   1
 Br     0.86485914000000     0.66543360000000     0.62480678000000   1   1   1
 Br     0.37365930000000     0.33055557000000     0.11332378000000   1   1   1
 Br     0.37365930000000     0.33055557000000     0.61332378000000   1   1   1
 Br     0.87365930000000     0.33055557000000     0.11332377000000   1   1   1
 Br     0.87365930000000     0.33055557000000     0.61332378000000   1   1   1
 Br     0.37710023000000     0.50854175000000     0.38268017000000   1   1   1
 Br     0.37710023000000     0.50854175000000     0.88268017000000   1   1   1
 Br     0.87710023000000     0.50854175000000     0.38268017000000   1   1   1
 Br     0.87710023000000     0.50854175000000     0.88268017000000   1   1   1
 Br     0.12289977000000     0.50854175000000     0.11731983000000   1   1   1
 Br     0.12289977000000     0.50854175000000     0.61731983000000   1   1   1
 Br     0.62289977000000     0.50854175000000     0.11731983000000   1   1   1
 Br     0.62289977000000     0.50854175000000     0.61731983000000   1   1   1
CELL_PARAMETERS
   13.89110638000000     0.00000000000000     0.00000000000000
    0.00000000000000    11.95390362000000     0.00000000000000
   -4.56923923997456     0.00000000000000    13.12994778041838

K_POINTS automatic
   2    1    2   0   0   0
